10J3M/DAT/10J3MULR-15.dat
10 3
20.1757 32.1854
23.5178 21.3723
17.6456 24.1604
30.0469 31.1398
13.8136 15.6619
13.7175 8.9406
35.1541 47.6208
13.8744 1.5732
8.7796 6.4716
43.1215 16.7427
68.6229