10J3M/SOL/10J3MULR-15.sol
solution status: optimal solution found
objective value:                     75.1083666666667
x#1#3                                               1 	(obj:0)
x#2#2                                               1 	(obj:0)
x#3#1                                               1 	(obj:0)
x#4#3                                               1 	(obj:0)
x#5#2                                 0.6888652816143 	(obj:0)
x#5#3                                 0.3111347183857 	(obj:0)
x#6#1                                               1 	(obj:0)
x#7#1                                               1 	(obj:0)
x#8#1                               0.718624971645316 	(obj:0)
x#8#2                               0.281375028354685 	(obj:0)
x#9#1                               0.538683019884889 	(obj:0)
x#9#2                               0.461316980115111 	(obj:0)
x#10#1                              0.204688884590479 	(obj:0)
x#10#3                              0.795311115409521 	(obj:0)
z                                    75.1083666666667 	(obj:1)
